50
20285

218 739
855 436
802 569
28 253
580 980
259 49
260 878
732 298
765 666
410 483
359 14
849 321
232 231
412 894
239 931
302 779
159 881
863 303
302 621
135 14
262 221
580 394
743 781
805 209
189 563
274 881
961 405
743 960
230 2
398 266
726 895
396 413
257 738
736 485
392 844
833 458
377 774
478 651
888 917
443 225
701 229
842 665
328 535
720 624
667 568
818 372
341 243
805 81
5 857
95 868
